NAME: test132
TYPE: TSP
DIMENSION: 20
EDGE_WEIGHT_TYPE: EUC_2D
NODE_COORD_SECTION
1 83.41669653342734 29.684601121178346
2 12.22264273337389 60.43012453351997
3 48.26904169680659 67.86365684536773
4 39.99289022997926 35.09197151028025
5 86.5320270991589 76.51939179547571
6 93.99574007147878 94.77084057208415
7 22.649651488855582 18.417674078158853
8 46.25651095785002 24.91918326606125
9 9.298412103681375 58.60356779093987
10 69.52327111586708 28.220523118644934
11 81.37196817016392 89.60523598916843
12 14.10007943998387 76.14942867644636
13 14.839876594270162 27.588218164880196
14 60.32532575875133 93.75788054925903
15 93.48997540236496 64.59369741019184
16 38.85046172543453 81.71968073981509
17 28.581387082820488 47.30793932805537
18 40.54819718803775 79.84177924320231
19 91.55912241875619 31.546394568439517
20 66.9961291406616 73.28182165689834
EOF
